(set-logic QF_NRA)
(set-info :source |Benchmarks generated from hycomp (https://es-static.fbk.eu/tools/hycomp/). BMC instances of non-linear hybrid automata taken from: Alessandro Cimatti, Sergio Mover, Stefano Tonetta, A quantifier-free SMT encoding of non-linear hybrid automata, FMCAD 2012 and Alessandro Cimatti, Sergio Mover, Stefano Tonetta, Quantier-free encoding of invariants for Hybrid Systems, Formal Methods in System Design. This instance solves a BMC problem of depth 1 and uses the quantifier free encoding with lemmas encoding. Contacts: Sergio Mover (mover@fbk.eu), Stefano Tonetta (tonettas@fbk.eu), Alessandro Cimatti (cimatti@fbk.eu).|)
(set-info :smt-lib-version 2.0)
(set-info :category "industrial")
(set-info :status unsat)
;; MathSAT API call trace
;; generated on Mon Mar 19 10:48:01 2012
(declare-fun b.counter.3__AT1 () Bool)
(declare-fun b.delta__AT1 () Real)
(declare-fun b.EVENT.0__AT1 () Bool)
(declare-fun b.x__AT1 () Real)
(declare-fun b.EVENT.1__AT1 () Bool)
(declare-fun b.event_is_timed__AT0 () Bool)
(declare-fun b.y__AT0 () Real)
(declare-fun b.counter.0__AT0 () Bool)
(declare-fun b.counter.1__AT0 () Bool)
(declare-fun b.EVENT.0__AT0 () Bool)
(declare-fun b.bool_atom__AT0 () Bool)
(declare-fun b.counter.2__AT0 () Bool)
(declare-fun b.speed_y__AT1 () Real)
(declare-fun b.event_is_timed__AT1 () Bool)
(declare-fun b.x__AT0 () Real)
(declare-fun b.time__AT1 () Real)
(declare-fun b.bool_atom__AT1 () Bool)
(declare-fun b.g__AT0 () Real)
(declare-fun b.EVENT.1__AT0 () Bool)
(declare-fun b.time__AT0 () Real)
(declare-fun b.delta__AT0 () Real)
(declare-fun b.counter.3__AT0 () Bool)
(declare-fun b.speed_y__AT0 () Real)
(declare-fun b.y__AT1 () Real)
(declare-fun b.counter.0__AT1 () Bool)
(declare-fun b.counter.1__AT1 () Bool)
(declare-fun b.counter.2__AT1 () Bool)
(assert (let ((.def_68 (* (- 1.0) b.g__AT0)))
(let ((.def_71 (* (/ 1 2) .def_68)))
(let ((.def_83 (* 2.0 .def_71)))
(let ((.def_127 (* (- 1.0) .def_83)))
(let ((.def_350 (* .def_127 b.delta__AT1)))
(let ((.def_353 (<= .def_350 b.speed_y__AT1)))
(let ((.def_360 (not .def_353)))
(let ((.def_313 (<= 0.0 b.speed_y__AT1)))
(let ((.def_361 (or .def_313 .def_360)))
(let ((.def_351 (<= b.speed_y__AT1 .def_350)))
(let ((.def_327 (<= b.speed_y__AT1 0.0 )))
(let ((.def_328 (not .def_327)))
(let ((.def_359 (or .def_328 .def_351)))
(let ((.def_362 (and .def_359 .def_361)))
(let ((.def_118 (<= b.g__AT0 0.0 )))
(let ((.def_363 (or .def_118 .def_362)))
(let ((.def_355 (not .def_351)))
(let ((.def_356 (or .def_327 .def_355)))
(let ((.def_314 (not .def_313)))
(let ((.def_354 (or .def_314 .def_353)))
(let ((.def_357 (and .def_354 .def_356)))
(let ((.def_123 (<= 0.0 b.g__AT0)))
(let ((.def_358 (or .def_123 .def_357)))
(let ((.def_364 (and .def_358 .def_363)))
(let ((.def_352 (and .def_327 .def_351)))
(let ((.def_365 (and .def_352 .def_364)))
(let ((.def_309 (* .def_83 b.delta__AT1)))
(let ((.def_310 (+ b.speed_y__AT1 .def_309)))
(let ((.def_325 (<= .def_310 0.0 )))
(let ((.def_326 (not .def_325)))
(let ((.def_345 (or .def_326 .def_327)))
(let ((.def_311 (<= 0.0 .def_310)))
(let ((.def_344 (or .def_311 .def_314)))
(let ((.def_346 (and .def_344 .def_345)))
(let ((.def_347 (or .def_123 .def_346)))
(let ((.def_312 (not .def_311)))
(let ((.def_341 (or .def_312 .def_313)))
(let ((.def_340 (or .def_325 .def_328)))
(let ((.def_342 (and .def_340 .def_341)))
(let ((.def_343 (or .def_118 .def_342)))
(let ((.def_348 (and .def_343 .def_347)))
(let ((.def_339 (and .def_311 .def_313)))
(let ((.def_349 (and .def_339 .def_348)))
(let ((.def_366 (or .def_349 .def_365)))
(let ((.def_300 (* b.speed_y__AT1 b.delta__AT1)))
(let ((.def_298 (* b.delta__AT1 b.delta__AT1)))
(let ((.def_299 (* .def_71 .def_298)))
(let ((.def_301 (+ .def_299 .def_300)))
(let ((.def_289 (* (- 1.0) b.x__AT1)))
(let ((.def_290 (* b.x__AT1 .def_289)))
(let ((.def_302 (* (- 1.0) .def_290)))
(let ((.def_305 (+ .def_302 .def_301)))
(let ((.def_306 (+ b.y__AT1 .def_305)))
(let ((.def_319 (<= .def_306 0.0 )))
(let ((.def_333 (not .def_319)))
(let ((.def_317 (<= b.y__AT1 .def_290)))
(let ((.def_334 (or .def_317 .def_333)))
(let ((.def_291 (<= .def_290 b.y__AT1)))
(let ((.def_331 (not .def_291)))
(let ((.def_307 (<= 0.0 .def_306)))
(let ((.def_332 (or .def_307 .def_331)))
(let ((.def_335 (and .def_332 .def_334)))
(let ((.def_329 (or .def_326 .def_328)))
(let ((.def_330 (not .def_329)))
(let ((.def_336 (or .def_330 .def_335)))
(let ((.def_321 (not .def_307)))
(let ((.def_322 (or .def_291 .def_321)))
(let ((.def_318 (not .def_317)))
(let ((.def_320 (or .def_318 .def_319)))
(let ((.def_323 (and .def_320 .def_322)))
(let ((.def_315 (or .def_312 .def_314)))
(let ((.def_316 (not .def_315)))
(let ((.def_324 (or .def_316 .def_323)))
(let ((.def_337 (and .def_324 .def_336)))
(let ((.def_308 (and .def_291 .def_307)))
(let ((.def_338 (and .def_308 .def_337)))
(let ((.def_367 (and .def_338 .def_366)))
(let ((.def_60 (<= b.g__AT0 10.0 )))
(let ((.def_59 (<= 8.0 b.g__AT0)))
(let ((.def_61 (and .def_59 .def_60)))
(let ((.def_368 (and .def_61 .def_367)))
(let ((.def_292 (and .def_61 .def_291)))
(let ((.def_286 (not b.EVENT.0__AT1)))
(let ((.def_284 (not b.EVENT.1__AT1)))
(let ((.def_287 (or .def_284 .def_286)))
(let ((.def_6 (not b.counter.0__AT1)))
(let ((.def_4 (not b.counter.1__AT1)))
(let ((.def_277 (or .def_4 .def_6)))
(let ((.def_281 (or b.counter.3__AT1 .def_277)))
(let ((.def_278 (or b.counter.2__AT1 .def_277)))
(let ((.def_9 (not b.counter.2__AT1)))
(let ((.def_276 (or .def_6 .def_9)))
(let ((.def_279 (and .def_276 .def_278)))
(let ((.def_12 (not b.counter.3__AT1)))
(let ((.def_280 (or .def_12 .def_279)))
(let ((.def_282 (and .def_280 .def_281)))
(let ((.def_288 (and .def_282 .def_287)))
(let ((.def_293 (and .def_288 .def_292)))
(let ((.def_271 (<= 0.0 b.delta__AT0)))
(let ((.def_49 (not b.EVENT.0__AT0)))
(let ((.def_47 (not b.EVENT.1__AT0)))
(let ((.def_148 (and .def_47 .def_49)))
(let ((.def_150 (not .def_148)))
(let ((.def_272 (or .def_150 .def_271)))
(let ((.def_273 (or b.EVENT.1__AT0 .def_272)))
(let ((.def_186 (= b.bool_atom__AT0 b.bool_atom__AT1)))
(let ((.def_181 (= b.counter.0__AT1 b.counter.0__AT0)))
(let ((.def_179 (= b.counter.1__AT1 b.counter.1__AT0)))
(let ((.def_177 (= b.counter.2__AT1 b.counter.2__AT0)))
(let ((.def_176 (= b.counter.3__AT1 b.counter.3__AT0)))
(let ((.def_178 (and .def_176 .def_177)))
(let ((.def_180 (and .def_178 .def_179)))
(let ((.def_182 (and .def_180 .def_181)))
(let ((.def_267 (and .def_182 .def_186)))
(let ((.def_268 (or .def_150 .def_267)))
(let ((.def_269 (or b.EVENT.1__AT0 .def_268)))
(let ((.def_256 (* b.delta__AT0 .def_68)))
(let ((.def_257 (* (- 1.0) b.speed_y__AT1)))
(let ((.def_260 (+ .def_257 .def_256)))
(let ((.def_261 (+ b.speed_y__AT0 .def_260)))
(let ((.def_262 (= .def_261 0.0 )))
(let ((.def_248 (* (- 1.0) b.y__AT1)))
(let ((.def_74 (* b.delta__AT0 b.speed_y__AT0)))
(let ((.def_251 (+ .def_74 .def_248)))
(let ((.def_67 (* b.delta__AT0 b.delta__AT0)))
(let ((.def_72 (* .def_67 .def_71)))
(let ((.def_252 (+ .def_72 .def_251)))
(let ((.def_253 (+ b.y__AT0 .def_252)))
(let ((.def_254 (= .def_253 0.0 )))
(let ((.def_168 (= b.x__AT0 b.x__AT1)))
(let ((.def_255 (and .def_168 .def_254)))
(let ((.def_263 (and .def_255 .def_262)))
(let ((.def_264 (or .def_150 .def_263)))
(let ((.def_171 (= b.y__AT0 b.y__AT1)))
(let ((.def_243 (and .def_168 .def_171)))
(let ((.def_174 (= b.speed_y__AT0 b.speed_y__AT1)))
(let ((.def_244 (and .def_174 .def_243)))
(let ((.def_240 (= b.delta__AT0 0.0 )))
(let ((.def_241 (and .def_148 .def_240)))
(let ((.def_242 (not .def_241)))
(let ((.def_245 (or .def_242 .def_244)))
(let ((.def_246 (or b.EVENT.1__AT0 .def_245)))
(let ((.def_233 (and .def_174 .def_182)))
(let ((.def_234 (or b.bool_atom__AT0 .def_233)))
(let ((.def_209 (or .def_6 b.counter.0__AT0)))
(let ((.def_30 (not b.counter.0__AT0)))
(let ((.def_208 (or b.counter.0__AT1 .def_30)))
(let ((.def_210 (and .def_208 .def_209)))
(let ((.def_211 (and .def_4 .def_210)))
(let ((.def_212 (or b.counter.1__AT0 .def_211)))
(let ((.def_28 (not b.counter.1__AT0)))
(let ((.def_207 (or b.counter.1__AT1 .def_28)))
(let ((.def_213 (and .def_207 .def_212)))
(let ((.def_224 (and .def_9 .def_213)))
(let ((.def_225 (or b.counter.2__AT0 .def_224)))
(let ((.def_219 (and .def_4 .def_30)))
(let ((.def_220 (or b.counter.1__AT0 .def_219)))
(let ((.def_221 (and .def_207 .def_220)))
(let ((.def_222 (and b.counter.2__AT1 .def_221)))
(let ((.def_33 (not b.counter.2__AT0)))
(let ((.def_223 (or .def_33 .def_222)))
(let ((.def_226 (and .def_223 .def_225)))
(let ((.def_227 (and b.counter.3__AT1 .def_226)))
(let ((.def_228 (or b.counter.3__AT0 .def_227)))
(let ((.def_214 (and b.counter.2__AT1 .def_213)))
(let ((.def_215 (or b.counter.2__AT0 .def_214)))
(let ((.def_203 (or b.counter.1__AT1 b.counter.1__AT0)))
(let ((.def_201 (and .def_4 b.counter.0__AT1)))
(let ((.def_202 (or .def_28 .def_201)))
(let ((.def_204 (and .def_202 .def_203)))
(let ((.def_205 (and .def_9 .def_204)))
(let ((.def_206 (or .def_33 .def_205)))
(let ((.def_216 (and .def_206 .def_215)))
(let ((.def_217 (and .def_12 .def_216)))
(let ((.def_36 (not b.counter.3__AT0)))
(let ((.def_218 (or .def_36 .def_217)))
(let ((.def_229 (and .def_218 .def_228)))
(let ((.def_198 (* b.speed_y__AT0 b.speed_y__AT0)))
(let ((.def_197 (* b.speed_y__AT1 b.speed_y__AT1)))
(let ((.def_199 (= .def_197 .def_198)))
(let ((.def_195 (+ b.speed_y__AT0 b.speed_y__AT1)))
(let ((.def_196 (= .def_195 0.0 )))
(let ((.def_200 (and .def_196 .def_199)))
(let ((.def_230 (and .def_200 .def_229)))
(let ((.def_194 (not b.bool_atom__AT0)))
(let ((.def_231 (or .def_194 .def_230)))
(let ((.def_54 (* (- 1.0) b.x__AT0)))
(let ((.def_55 (* b.x__AT0 .def_54)))
(let ((.def_191 (= b.y__AT0 .def_55)))
(let ((.def_88 (<= 0.0 b.speed_y__AT0)))
(let ((.def_89 (not .def_88)))
(let ((.def_192 (and .def_89 .def_191)))
(let ((.def_193 (= b.bool_atom__AT0 .def_192)))
(let ((.def_232 (and .def_193 .def_231)))
(let ((.def_235 (and .def_232 .def_234)))
(let ((.def_236 (and .def_168 .def_235)))
(let ((.def_237 (and .def_171 .def_236)))
(let ((.def_238 (or .def_148 .def_237)))
(let ((.def_239 (or b.EVENT.1__AT0 .def_238)))
(let ((.def_247 (and .def_239 .def_246)))
(let ((.def_265 (and .def_247 .def_264)))
(let ((.def_155 (= b.time__AT0 b.time__AT1)))
(let ((.def_169 (and .def_155 .def_168)))
(let ((.def_172 (and .def_169 .def_171)))
(let ((.def_175 (and .def_172 .def_174)))
(let ((.def_183 (and .def_175 .def_182)))
(let ((.def_187 (and .def_183 .def_186)))
(let ((.def_188 (or .def_47 .def_187)))
(let ((.def_158 (* (- 1.0) b.time__AT1)))
(let ((.def_161 (+ b.delta__AT0 .def_158)))
(let ((.def_162 (+ b.time__AT0 .def_161)))
(let ((.def_163 (= .def_162 0.0 )))
(let ((.def_164 (or .def_150 .def_163)))
(let ((.def_165 (or b.EVENT.1__AT0 .def_164)))
(let ((.def_156 (or .def_148 .def_155)))
(let ((.def_157 (or b.EVENT.1__AT0 .def_156)))
(let ((.def_166 (and .def_157 .def_165)))
(let ((.def_189 (and .def_166 .def_188)))
(let ((.def_152 (= .def_150 b.event_is_timed__AT1)))
(let ((.def_149 (= b.event_is_timed__AT0 .def_148)))
(let ((.def_153 (and .def_149 .def_152)))
(let ((.def_190 (and .def_153 .def_189)))
(let ((.def_266 (and .def_190 .def_265)))
(let ((.def_270 (and .def_266 .def_269)))
(let ((.def_274 (and .def_270 .def_273)))
(let ((.def_275 (and .def_47 .def_274)))
(let ((.def_294 (and .def_275 .def_293)))
(let ((.def_31 (and .def_28 .def_30)))
(let ((.def_34 (and .def_31 .def_33)))
(let ((.def_37 (and .def_34 .def_36)))
(let ((.def_295 (and .def_37 .def_294)))
(let ((.def_128 (* b.delta__AT0 .def_127)))
(let ((.def_131 (<= .def_128 b.speed_y__AT0)))
(let ((.def_138 (not .def_131)))
(let ((.def_139 (or .def_88 .def_138)))
(let ((.def_129 (<= b.speed_y__AT0 .def_128)))
(let ((.def_102 (<= b.speed_y__AT0 0.0 )))
(let ((.def_103 (not .def_102)))
(let ((.def_137 (or .def_103 .def_129)))
(let ((.def_140 (and .def_137 .def_139)))
(let ((.def_141 (or .def_118 .def_140)))
(let ((.def_133 (not .def_129)))
(let ((.def_134 (or .def_102 .def_133)))
(let ((.def_132 (or .def_89 .def_131)))
(let ((.def_135 (and .def_132 .def_134)))
(let ((.def_136 (or .def_123 .def_135)))
(let ((.def_142 (and .def_136 .def_141)))
(let ((.def_130 (and .def_102 .def_129)))
(let ((.def_143 (and .def_130 .def_142)))
(let ((.def_84 (* b.delta__AT0 .def_83)))
(let ((.def_85 (+ b.speed_y__AT0 .def_84)))
(let ((.def_100 (<= .def_85 0.0 )))
(let ((.def_101 (not .def_100)))
(let ((.def_121 (or .def_101 .def_102)))
(let ((.def_86 (<= 0.0 .def_85)))
(let ((.def_120 (or .def_86 .def_89)))
(let ((.def_122 (and .def_120 .def_121)))
(let ((.def_124 (or .def_122 .def_123)))
(let ((.def_87 (not .def_86)))
(let ((.def_116 (or .def_87 .def_88)))
(let ((.def_115 (or .def_100 .def_103)))
(let ((.def_117 (and .def_115 .def_116)))
(let ((.def_119 (or .def_117 .def_118)))
(let ((.def_125 (and .def_119 .def_124)))
(let ((.def_114 (and .def_86 .def_88)))
(let ((.def_126 (and .def_114 .def_125)))
(let ((.def_144 (or .def_126 .def_143)))
(let ((.def_75 (+ .def_72 .def_74)))
(let ((.def_76 (* (- 1.0) .def_55)))
(let ((.def_79 (+ .def_76 .def_75)))
(let ((.def_80 (+ b.y__AT0 .def_79)))
(let ((.def_94 (<= .def_80 0.0 )))
(let ((.def_108 (not .def_94)))
(let ((.def_92 (<= b.y__AT0 .def_55)))
(let ((.def_109 (or .def_92 .def_108)))
(let ((.def_56 (<= .def_55 b.y__AT0)))
(let ((.def_106 (not .def_56)))
(let ((.def_81 (<= 0.0 .def_80)))
(let ((.def_107 (or .def_81 .def_106)))
(let ((.def_110 (and .def_107 .def_109)))
(let ((.def_104 (or .def_101 .def_103)))
(let ((.def_105 (not .def_104)))
(let ((.def_111 (or .def_105 .def_110)))
(let ((.def_96 (not .def_81)))
(let ((.def_97 (or .def_56 .def_96)))
(let ((.def_93 (not .def_92)))
(let ((.def_95 (or .def_93 .def_94)))
(let ((.def_98 (and .def_95 .def_97)))
(let ((.def_90 (or .def_87 .def_89)))
(let ((.def_91 (not .def_90)))
(let ((.def_99 (or .def_91 .def_98)))
(let ((.def_112 (and .def_99 .def_111)))
(let ((.def_82 (and .def_56 .def_81)))
(let ((.def_113 (and .def_82 .def_112)))
(let ((.def_145 (and .def_113 .def_144)))
(let ((.def_146 (and .def_61 .def_145)))
(let ((.def_62 (and .def_56 .def_61)))
(let ((.def_50 (or .def_47 .def_49)))
(let ((.def_40 (or .def_28 .def_30)))
(let ((.def_44 (or b.counter.3__AT0 .def_40)))
(let ((.def_41 (or b.counter.2__AT0 .def_40)))
(let ((.def_39 (or .def_30 .def_33)))
(let ((.def_42 (and .def_39 .def_41)))
(let ((.def_43 (or .def_36 .def_42)))
(let ((.def_45 (and .def_43 .def_44)))
(let ((.def_51 (and .def_45 .def_50)))
(let ((.def_63 (and .def_51 .def_62)))
(let ((.def_25 (= b.y__AT0 10.0 )))
(let ((.def_21 (= b.x__AT0 0.0 )))
(let ((.def_17 (= b.time__AT0 0.0 )))
(let ((.def_19 (and .def_17 b.event_is_timed__AT0)))
(let ((.def_22 (and .def_19 .def_21)))
(let ((.def_26 (and .def_22 .def_25)))
(let ((.def_38 (and .def_26 .def_37)))
(let ((.def_64 (and .def_38 .def_63)))
(let ((.def_7 (and .def_4 .def_6)))
(let ((.def_10 (and .def_7 .def_9)))
(let ((.def_13 (and .def_10 .def_12)))
(let ((.def_14 (not .def_13)))
(let ((.def_65 (and .def_14 .def_64)))
(let ((.def_147 (and .def_65 .def_146)))
(let ((.def_296 (and .def_147 .def_295)))
(let ((.def_369 (and .def_296 .def_368)))
.def_369))))))))))))))))))))))))))))))))))))))))))))))))))))))))))))))))))))))))))))))))))))))))))))))))))))))))))))))))))))))))))))))))))))))))))))))))))))))))))))))))))))))))))))))))))))))))))))))))))))))))))))))))))))))))))))))))))))))))))))))))))))))))))))))))))))))))))))))))))))))))))))))))))))))))))))))))))))))))))))))))))))
(check-sat)
(exit)
